nNurses = 168;
nHours = 33;
minHours = 7;
maxHours = 10;
maxConsec = 9;
maxPresence = 8;
demand = [20, 25, 28, 25, 20, 19, 19, 17, 15, 11, 15, 17, 16, 21, 18, 23, 23, 18, 19, 15, 13, 15, 12, 15, 11, 13, 17, 12, 13, 15, 17, 13, 14];
